set VV := 0 1 2 3 4 5 6 7 8 9 10 11 12 13 14 15 16 17 18 19 20 21 22 23 24 25 ;
set VS := 0 1 2 3 4 5 6 7 8 9 10 11 12 13 14 15 16 17 18 19 20 21 22 23 24 25 26 27 28 29 30 31 32 33 34 35 36 37 38 39 40 41 42 43 44 45 46 47 48 49 50 51 52 53 54 55 56 ;
param cv := 
0 10
1 10
2 19
3 11
4 19
5 19
6 10
7 21
8 10
9 25
10 19
11 20
12 17
13 24
14 20
15 21
16 15
17 11
18 23
19 18
20 24
21 19
22 16
23 21
24 20
25 22
;
param cs := 
0 37
1 23
2 36
3 29
4 21
5 25
6 28
7 24
8 28
9 33
10 31
11 40
12 23
13 27
14 22
15 31
16 28
17 37
18 31
19 35
20 38
21 28
22 40
23 29
24 26
25 31
26 29
27 30
28 26
29 20
30 38
31 30
32 29
33 39
34 24
35 22
36 24
37 21
38 32
39 26
40 22
41 22
42 26
43 20
44 33
45 27
46 26
47 27
48 38
49 38
50 20
51 26
52 36
53 40
54 26
55 24
56 27
;
param bv:	 0 1 2 3 4 5 6 7 8 9 10 11 12 13 14 15 16 17 18 19 20 21 22 23 24 25 := 
		0 0 0 0 0 0 21 24 12 0 0 0 0 0 0 0 0 0 0 10 0 0 0 0 0 0 0 
		1 0 0 0 0 15 0 0 0 13 0 0 0 18 0 0 0 0 0 0 0 0 0 23 0 0 0 
		2 0 0 0 0 0 0 0 0 24 21 0 0 22 17 24 0 12 0 0 24 0 0 0 0 0 0 
		3 0 0 0 0 0 0 0 0 22 0 0 0 0 0 0 21 0 22 0 0 0 0 0 25 0 0 
		4 0 0 0 0 0 0 0 0 0 12 0 0 0 20 0 0 0 0 0 22 0 0 0 0 0 21 
		5 0 0 0 0 0 0 24 0 0 0 22 0 0 0 0 0 0 0 19 12 0 0 0 0 0 0 
		6 0 0 0 0 0 0 0 0 0 0 0 0 0 0 25 0 0 0 20 0 0 0 0 0 0 0 
		7 0 0 0 0 0 0 0 0 0 0 0 0 0 0 0 0 0 0 0 17 0 0 0 0 0 0 
		8 0 0 0 0 0 0 0 0 0 0 0 0 0 23 0 0 0 0 10 0 0 0 22 0 0 0 
		9 0 0 0 0 0 0 0 0 0 0 0 21 0 0 0 0 0 0 0 12 22 0 0 0 0 16 
		10 0 0 0 0 0 0 0 0 0 0 0 0 0 0 0 0 0 0 0 0 0 21 0 0 0 0 
		11 0 0 0 0 0 0 0 0 0 0 0 0 0 0 0 0 0 0 0 0 0 0 0 0 0 0 
		12 0 0 0 0 0 0 0 0 0 0 0 0 0 0 16 0 15 0 0 0 0 0 0 22 0 0 
		13 0 0 0 0 0 0 0 0 0 0 0 0 0 0 0 0 0 0 0 0 10 0 0 0 0 0 
		14 0 0 0 0 0 0 0 0 0 0 0 0 0 0 0 0 0 0 0 0 20 0 20 0 0 0 
		15 0 0 0 0 0 0 0 0 0 0 0 0 0 0 0 0 0 0 20 0 25 16 17 0 0 16 
		16 0 0 0 0 0 0 0 0 0 0 0 0 0 0 0 0 0 0 0 0 0 0 0 0 0 0 
		17 0 0 0 0 0 0 0 0 0 0 0 0 0 0 0 0 0 0 0 0 0 0 0 0 0 0 
		18 0 0 0 0 0 0 0 0 0 0 0 0 0 0 0 0 0 0 0 0 0 0 0 12 0 0 
		19 0 0 0 0 0 0 0 0 0 0 0 0 0 0 0 0 0 0 0 0 0 0 0 0 0 0 
		20 0 0 0 0 0 0 0 0 0 0 0 0 0 0 0 0 0 0 0 0 0 0 0 0 0 0 
		21 0 0 0 0 0 0 0 0 0 0 0 0 0 0 0 0 0 0 0 0 0 0 0 0 0 0 
		22 0 0 0 0 0 0 0 0 0 0 0 0 0 0 0 0 0 0 0 0 0 0 0 0 0 0 
		23 0 0 0 0 0 0 0 0 0 0 0 0 0 0 0 0 0 0 0 0 0 0 0 0 10 0 
		24 0 0 0 0 0 0 0 0 0 0 0 0 0 0 0 0 0 0 0 0 0 0 0 0 0 0 
		25 0 0 0 0 0 0 0 0 0 0 0 0 0 0 0 0 0 0 0 0 0 0 0 0 0 0 
;
param bs:	 0 1 2 3 4 5 6 7 8 9 10 11 12 13 14 15 16 17 18 19 20 21 22 23 24 25 26 27 28 29 30 31 32 33 34 35 36 37 38 39 40 41 42 43 44 45 46 47 48 49 50 51 52 53 54 55 56 := 
		0 0 0 0 0 0 0 0 37 0 0 26 0 0 0 0 0 0 0 34 36 0 0 0 0 0 0 0 0 38 0 0 0 0 0 0 0 0 0 0 0 0 0 0 0 0 0 0 0 0 0 0 0 0 0 0 0 0 
		1 0 0 0 0 0 0 0 0 0 0 27 0 0 0 0 0 0 0 0 0 23 0 0 0 0 0 0 0 0 0 0 0 0 35 30 0 0 0 0 0 28 0 39 0 0 0 23 0 0 0 0 0 0 20 23 0 0 
		2 0 0 0 0 0 0 0 0 0 0 0 0 0 0 0 0 21 0 0 0 0 0 0 0 0 39 40 0 29 0 0 0 0 0 0 0 36 0 0 0 0 0 0 0 0 0 0 0 0 0 0 0 0 0 0 0 0 
		3 0 0 0 0 0 0 0 0 0 0 0 0 0 0 0 0 22 0 0 0 0 0 0 31 0 0 0 0 0 0 0 0 0 0 0 0 0 0 0 0 0 0 0 0 0 0 0 0 0 0 0 0 0 0 0 0 29 
		4 0 0 0 0 0 0 0 0 0 0 0 33 0 0 0 0 0 0 0 0 0 0 0 0 0 0 39 27 0 0 0 0 0 0 0 0 0 0 0 0 0 0 0 0 31 0 0 0 0 0 0 0 0 0 0 0 0 
		5 0 0 0 0 0 0 0 0 0 0 0 0 0 0 0 0 0 0 0 0 0 0 0 0 0 0 0 0 0 0 0 0 0 0 0 35 0 0 0 0 29 0 0 40 0 0 40 0 0 0 31 0 0 0 0 0 0 
		6 0 0 0 0 0 0 0 0 25 0 0 0 0 0 0 0 35 0 0 0 0 0 0 0 0 0 0 0 0 0 0 0 0 0 0 0 0 0 0 0 0 0 0 0 0 0 0 0 0 26 0 0 0 0 0 0 0 
		7 37 0 0 0 0 0 0 0 34 0 0 0 0 0 0 0 0 0 0 0 0 0 0 0 31 0 0 0 0 0 0 0 0 26 0 0 28 0 0 0 39 0 0 29 0 0 0 0 0 0 0 0 0 32 0 0 31 
		8 0 0 0 0 0 0 25 34 0 20 38 0 0 0 0 0 0 0 0 0 0 0 0 0 0 0 0 0 0 0 32 0 0 0 0 0 0 40 0 0 0 38 0 0 0 0 0 0 0 0 0 0 0 0 0 0 0 
		9 0 0 0 0 0 0 0 0 20 0 0 0 0 0 0 0 0 0 0 0 0 0 0 0 0 0 0 0 0 0 21 0 0 0 29 0 0 0 0 29 0 0 0 0 0 0 0 0 0 0 0 22 0 0 0 0 0 
		10 26 27 0 0 0 0 0 0 38 0 0 0 20 0 0 0 0 0 0 22 0 0 0 0 0 0 0 0 0 0 0 0 0 0 0 0 35 0 0 0 0 0 0 0 0 0 0 0 0 29 0 0 0 0 0 0 0 
		11 0 0 0 0 33 0 0 0 0 0 0 0 0 0 0 0 0 0 0 26 0 20 0 0 0 0 0 0 0 20 0 0 0 0 0 0 0 0 0 0 0 0 0 0 0 0 24 0 0 39 0 0 39 0 0 0 0 
		12 0 0 0 0 0 0 0 0 0 0 20 0 0 0 0 0 0 31 0 0 28 0 0 31 0 0 0 0 0 25 0 0 31 0 0 0 36 0 0 0 0 0 38 31 0 0 0 0 0 0 0 0 0 0 0 0 0 
		13 0 0 0 0 0 0 0 0 0 0 0 0 0 0 0 0 0 0 0 0 0 0 0 0 22 0 0 0 0 0 0 0 0 34 0 0 35 0 0 0 0 0 0 0 0 0 0 0 0 0 0 0 0 0 31 0 0 
		14 0 0 0 0 0 0 0 0 0 0 0 0 0 0 0 0 27 0 0 0 0 0 0 0 0 0 0 0 0 0 0 0 0 0 0 0 0 0 0 0 0 0 0 0 32 0 0 0 0 0 0 0 0 0 0 0 0 
		15 0 0 0 0 0 0 0 0 0 0 0 0 0 0 0 0 0 0 0 0 0 0 0 0 0 0 0 0 35 0 0 0 0 0 0 0 0 0 0 0 0 0 0 0 0 0 0 39 31 0 0 0 0 0 0 0 0 
		16 0 0 21 22 0 0 35 0 0 0 0 0 0 0 27 0 0 0 0 0 0 0 0 0 0 0 0 0 0 0 33 23 0 0 0 0 0 0 0 0 0 0 0 0 0 21 0 0 0 23 23 0 0 0 0 0 0 
		17 0 0 0 0 0 0 0 0 0 0 0 0 31 0 0 0 0 0 0 0 0 36 0 30 0 0 0 36 0 0 0 0 26 27 0 0 0 0 0 27 0 37 0 0 0 0 23 0 24 0 0 37 0 26 23 0 0 
		18 34 0 0 0 0 0 0 0 0 0 0 0 0 0 0 0 0 0 0 0 0 0 0 0 0 0 0 0 0 0 0 0 26 0 0 0 0 0 0 0 0 0 36 0 0 0 0 0 0 0 0 0 0 0 0 31 0 
		19 36 0 0 0 0 0 0 0 0 0 22 26 0 0 0 0 0 0 0 0 0 0 0 33 0 0 0 0 0 0 0 0 0 0 0 0 0 0 0 0 0 0 25 0 0 0 0 0 0 0 0 0 26 38 0 0 0 
		20 0 23 0 0 0 0 0 0 0 0 0 0 28 0 0 0 0 0 0 0 0 0 0 0 0 0 32 0 0 0 0 0 20 0 0 0 0 0 20 0 22 0 0 0 0 0 0 0 29 0 0 0 0 0 39 0 0 
		21 0 0 0 0 0 0 0 0 0 0 0 20 0 0 0 0 0 36 0 0 0 0 0 0 0 0 0 0 0 0 0 0 0 0 0 0 0 0 0 0 0 0 0 0 0 0 0 0 0 30 0 0 29 0 0 0 0 
		22 0 0 0 0 0 0 0 0 0 0 0 0 0 0 0 0 0 0 0 0 0 0 0 21 0 0 0 0 0 0 0 32 0 0 0 31 21 0 0 0 0 0 0 0 0 0 0 0 0 32 0 0 0 0 0 0 0 
		23 0 0 0 31 0 0 0 0 0 0 0 0 31 0 0 0 0 30 0 33 0 0 21 0 0 0 0 0 0 0 0 0 0 0 0 35 0 0 0 0 0 0 0 0 37 39 39 0 0 0 0 36 0 0 0 0 0 
		24 0 0 0 0 0 0 0 31 0 0 0 0 0 22 0 0 0 0 0 0 0 0 0 0 0 0 25 0 20 0 0 29 0 0 0 0 0 34 37 0 0 0 0 0 26 0 40 0 0 0 40 0 0 0 0 0 40 
		25 0 0 39 0 0 0 0 0 0 0 0 0 0 0 0 0 0 0 0 0 0 0 0 0 0 0 0 0 0 37 0 0 0 25 0 0 0 0 0 0 0 0 37 0 0 0 0 0 0 0 0 0 0 0 0 0 0 
		26 0 0 40 0 39 0 0 0 0 0 0 0 0 0 0 0 0 0 0 0 32 0 0 0 25 0 0 0 0 0 0 0 0 0 0 0 0 0 0 0 0 0 0 0 0 0 0 0 0 0 0 0 0 0 0 0 28 
		27 0 0 0 0 27 0 0 0 0 0 0 0 0 0 0 0 0 36 0 0 0 0 0 0 0 0 0 0 0 30 0 0 0 0 0 39 0 0 0 0 0 0 0 31 0 0 39 0 0 37 23 0 0 0 0 0 0 
		28 38 0 29 0 0 0 0 0 0 0 0 0 0 0 0 35 0 0 0 0 0 0 0 0 20 0 0 0 0 0 0 0 0 0 0 0 0 0 0 0 0 0 0 0 0 0 0 0 0 0 28 0 0 0 0 0 0 
		29 0 0 0 0 0 0 0 0 0 0 0 20 25 0 0 0 0 0 0 0 0 0 0 0 0 37 0 30 0 0 0 35 0 0 0 0 0 0 0 0 0 0 0 0 0 31 29 0 0 0 0 0 0 0 26 23 0 
		30 0 0 0 0 0 0 0 0 32 21 0 0 0 0 0 0 33 0 0 0 0 0 0 0 0 0 0 0 0 0 0 0 0 0 0 0 0 0 0 0 0 0 0 0 0 0 0 0 0 0 0 0 0 0 0 0 0 
		31 0 0 0 0 0 0 0 0 0 0 0 0 0 0 0 0 23 0 0 0 0 0 32 0 29 0 0 0 0 35 0 0 0 0 0 0 38 0 0 0 0 0 0 0 0 0 0 0 34 0 0 37 31 0 27 0 0 
		32 0 0 0 0 0 0 0 0 0 0 0 0 31 0 0 0 0 26 26 0 20 0 0 0 0 0 0 0 0 0 0 0 0 0 0 0 32 24 0 0 0 37 0 0 0 0 0 0 0 0 0 0 0 0 20 0 0 
		33 0 35 0 0 0 0 0 26 0 0 0 0 0 34 0 0 0 27 0 0 0 0 0 0 0 25 0 0 0 0 0 0 0 0 0 0 0 0 23 0 0 0 0 0 0 0 0 0 0 0 34 0 0 39 0 0 0 
		34 0 30 0 0 0 0 0 0 0 29 0 0 0 0 0 0 0 0 0 0 0 0 0 0 0 0 0 0 0 0 0 0 0 0 0 0 0 0 0 0 0 0 0 0 0 0 0 0 0 0 0 0 0 0 0 0 39 
		35 0 0 0 0 0 35 0 0 0 0 0 0 0 0 0 0 0 0 0 0 0 0 31 35 0 0 0 39 0 0 0 0 0 0 0 0 0 0 0 0 0 0 31 0 0 0 25 0 0 0 0 0 0 0 0 30 0 
		36 0 0 36 0 0 0 0 28 0 0 35 0 36 35 0 0 0 0 0 0 0 0 21 0 0 0 0 0 0 0 0 38 32 0 0 0 0 0 0 0 0 0 0 36 0 0 0 0 0 0 0 29 0 0 0 0 0 
		37 0 0 0 0 0 0 0 0 40 0 0 0 0 0 0 0 0 0 0 0 0 0 0 0 34 0 0 0 0 0 0 0 24 0 0 0 0 0 0 0 33 0 0 0 0 0 20 0 0 0 0 0 0 0 0 0 0 
		38 0 0 0 0 0 0 0 0 0 0 0 0 0 0 0 0 0 0 0 0 20 0 0 0 37 0 0 0 0 0 0 0 0 23 0 0 0 0 0 0 0 0 0 0 0 0 0 0 0 0 0 0 0 0 0 0 0 
		39 0 0 0 0 0 0 0 0 0 29 0 0 0 0 0 0 0 27 0 0 0 0 0 0 0 0 0 0 0 0 0 0 0 0 0 0 0 0 0 0 0 0 0 0 0 21 0 0 0 0 0 0 0 32 0 0 0 
		40 0 28 0 0 0 29 0 39 0 0 0 0 0 0 0 0 0 0 0 0 22 0 0 0 0 0 0 0 0 0 0 0 0 0 0 0 0 33 0 0 0 0 37 25 0 24 0 0 0 0 0 0 0 0 0 23 0 
		41 0 0 0 0 0 0 0 0 38 0 0 0 0 0 0 0 0 37 0 0 0 0 0 0 0 0 0 0 0 0 0 0 37 0 0 0 0 0 0 0 0 0 0 0 0 0 0 26 0 0 0 0 0 0 0 0 0 
		42 0 39 0 0 0 0 0 0 0 0 0 0 38 0 0 0 0 0 36 25 0 0 0 0 0 37 0 0 0 0 0 0 0 0 0 31 0 0 0 0 37 0 0 0 0 0 0 0 0 0 0 0 36 0 0 0 0 
		43 0 0 0 0 0 40 0 29 0 0 0 0 31 0 0 0 0 0 0 0 0 0 0 0 0 0 0 31 0 0 0 0 0 0 0 0 36 0 0 0 25 0 0 0 0 0 40 0 0 0 29 0 0 28 0 0 0 
		44 0 0 0 0 31 0 0 0 0 0 0 0 0 0 32 0 0 0 0 0 0 0 0 37 26 0 0 0 0 0 0 0 0 0 0 0 0 0 0 0 0 0 0 0 0 0 33 0 0 0 0 0 0 0 0 0 32 
		45 0 0 0 0 0 0 0 0 0 0 0 0 0 0 0 0 21 0 0 0 0 0 0 39 0 0 0 0 0 31 0 0 0 0 0 0 0 0 0 21 24 0 0 0 0 0 0 0 0 0 0 27 0 0 0 0 29 
		46 0 23 0 0 0 40 0 0 0 0 0 24 0 0 0 0 0 23 0 0 0 0 0 39 40 0 0 39 0 29 0 0 0 0 0 25 0 20 0 0 0 0 0 40 33 0 0 0 22 0 0 0 0 0 0 0 25 
		47 0 0 0 0 0 0 0 0 0 0 0 0 0 0 0 39 0 0 0 0 0 0 0 0 0 0 0 0 0 0 0 0 0 0 0 0 0 0 0 0 0 26 0 0 0 0 0 0 0 0 0 0 0 0 0 0 0 
		48 0 0 0 0 0 0 0 0 0 0 0 0 0 0 0 31 0 24 0 0 29 0 0 0 0 0 0 0 0 0 0 34 0 0 0 0 0 0 0 0 0 0 0 0 0 0 22 0 0 0 36 0 0 0 0 37 0 
		49 0 0 0 0 0 0 26 0 0 0 29 39 0 0 0 0 23 0 0 0 0 30 32 0 0 0 0 37 0 0 0 0 0 0 0 0 0 0 0 0 0 0 0 0 0 0 0 0 0 0 0 0 0 35 0 36 0 
		50 0 0 0 0 0 31 0 0 0 0 0 0 0 0 0 0 23 0 0 0 0 0 0 0 40 0 0 23 28 0 0 0 0 34 0 0 0 0 0 0 0 0 0 29 0 0 0 0 36 0 0 0 0 0 0 0 0 
		51 0 0 0 0 0 0 0 0 0 22 0 0 0 0 0 0 0 37 0 0 0 0 0 36 0 0 0 0 0 0 0 37 0 0 0 0 29 0 0 0 0 0 0 0 0 27 0 0 0 0 0 0 37 20 0 0 0 
		52 0 0 0 0 0 0 0 0 0 0 0 39 0 0 0 0 0 0 0 26 0 29 0 0 0 0 0 0 0 0 0 31 0 0 0 0 0 0 0 0 0 0 36 0 0 0 0 0 0 0 0 37 0 0 31 0 0 
		53 0 20 0 0 0 0 0 32 0 0 0 0 0 0 0 0 0 26 0 38 0 0 0 0 0 0 0 0 0 0 0 0 0 39 0 0 0 0 0 32 0 0 0 28 0 0 0 0 0 35 0 20 0 0 0 0 0 
		54 0 23 0 0 0 0 0 0 0 0 0 0 0 31 0 0 0 23 0 0 39 0 0 0 0 0 0 0 0 26 0 27 20 0 0 0 0 0 0 0 0 0 0 0 0 0 0 0 0 0 0 0 31 0 0 0 0 
		55 0 0 0 0 0 0 0 0 0 0 0 0 0 0 0 0 0 0 31 0 0 0 0 0 0 0 0 0 0 23 0 0 0 0 0 30 0 0 0 0 23 0 0 0 0 0 0 0 37 36 0 0 0 0 0 0 0 
		56 0 0 0 29 0 0 0 31 0 0 0 0 0 0 0 0 0 0 0 0 0 0 0 0 40 0 28 0 0 0 0 0 0 0 39 0 0 0 0 0 0 0 0 0 32 29 25 0 0 0 0 0 0 0 0 0 0 
;
